120 150

49
54
59
50
47
57
48
52
47
51
55
51
41
53
48
44
49
49
59
51
45
51
48
49
60
51
54
45
47
54
42
50
49
55
41
45
51
59
43
60
47
50
50
44
50
53
56
49
51
45
47
49
40
50
54
53
51
56
43
56
45
43
49
54
48
48
57
52
47
54
50
49
48
41
52
46
60
45
54
54
54
54
42
44
51
51
47
49
45
55
54
48
49
60
47
54
43
53
60
45
50
55
54
52
47
48
55
55
47
51
45
50
40
44
49
49
48
45
46
55